Route #1: 35 14 19 11 18 36
Route #2: 33 1 15 2 17 16 13 12 71 6 10 8 7 9 4 3 5
Route #3: 20 29 30 21 22 28 27 42 44 43 46 53 45 52 48 47 50 51 70 49 25 26 24 23
Route #4: 31 34 60 61 58 59 63 64 62 65 66 67 69 37 38 40 68 39 56 57 41 55 54 32
Cost 237
Time 0.131819
